50
100
97
92
90
85
83
83
82
81
77
76
74
73
71
67
67
67
67
63
63
62
59
58
58
56
56
55
53
50
47
42
41
41
41
39
37
35
32
31
30
26
25
22
20
17
16
15
13
13
10
5
